%chk=temp.chk
# b3lyp/sto-3g geom=connectivity

Title Card Required

0 1
 C              
 H                  1            B1
 H                  1            B2    2            A1
 C                  1            B3    3            A2    2            D1    0
 H                  4            B4    1            A3    3            D2    0
 C                  4            B5    1            A4    3            D3    0
 H                  6            B6    4            A5    1            D4    0
 C                  6            B7    4            A6    1            D5    0
 H                  8            B8    6            A7    4            D6    0
 H                  8            B9    6            A8    4            D7    0

   B1             1.07000000
   B2             1.07000000
   B3             1.35520000
   B4             1.07000000
   B5             1.54000000
   B6             1.07000000
   B7             1.35520000
   B8             1.07000000
   B9             1.07000000
   A1           120.00000000
   A2           120.00000000
   A3           120.00000000
   A4           120.00000000
   A5           120.00000000
   A6           120.00000000
   A7           120.00000000
   A8           120.00000000
   D1          -180.00000000
   D2          -180.00000000
   D3             0.00000000
   D4             0.00000000
   D5          -180.00000000
   D6           180.00000000
   D7             0.00000000

 1 2 1.0 3 1.0 4 2.0
 2
 3
 4 5 1.0 6 1.0
 5
 6 7 1.0 8 2.0
 7
 8 9 1.0 10 1.0
 9
 10

