%rwf=temp.rwf
%nosave
%chk=temp.chk
# METHOD/BASIS

title

0 1
 H
 H                  1            B1

   B1             BONDLEN
