%rwf=temp.rwf
%nosave
%chk=temp.chk
# METHOD/BASIS
nosymm int=noraff iop(99/6=1) scf=conventional  symm=noint

title

0 1
 H              
 H                  1            B1

   B1             0.60000000
